c strEdges: 189  randomEdges: 441 
c degrees:  2  3 
c girth: 10 max: 8.032766  
c Hgirth mixed MAXCUT instance
c generated from an undirected graph
c to solve unweighted MaxCut
p cnf 140 1260
132 96 0
-132 -96 0
132 92 0
-132 -92 0
132 107 0
-132 -107 0
113 20 0
-113 -20 0
113 49 0
-113 -49 0
113 5 0
-113 -5 0
42 14 0
-42 -14 0
42 43 0
-42 -43 0
42 106 0
-42 -106 0
115 130 0
-115 -130 0
115 29 0
-115 -29 0
115 68 0
-115 -68 0
83 37 0
-83 -37 0
83 86 0
-83 -86 0
99 28 0
-99 -28 0
99 74 0
-99 -74 0
99 130 0
-99 -130 0
80 9 0
-80 -9 0
80 43 0
-80 -43 0
80 138 0
-80 -138 0
45 49 0
-45 -49 0
45 44 0
-45 -44 0
39 43 0
-39 -43 0
39 81 0
-39 -81 0
39 29 0
-39 -29 0
48 33 0
-48 -33 0
48 121 0
-48 -121 0
48 91 0
-48 -91 0
100 81 0
-100 -81 0
100 13 0
-100 -13 0
89 106 0
-89 -106 0
89 114 0
-89 -114 0
89 105 0
-89 -105 0
30 86 0
-30 -86 0
30 14 0
-30 -14 0
30 47 0
-30 -47 0
95 75 0
-95 -75 0
95 126 0
-95 -126 0
69 66 0
-69 -66 0
69 18 0
-69 -18 0
82 70 0
-82 -70 0
82 16 0
-82 -16 0
23 138 0
-23 -138 0
23 94 0
-23 -94 0
23 4 0
-23 -4 0
140 51 0
-140 -51 0
140 37 0
-140 -37 0
140 103 0
-140 -103 0
8 93 0
-8 -93 0
8 51 0
-8 -51 0
52 121 0
-52 -121 0
52 127 0
-52 -127 0
22 13 0
-22 -13 0
22 96 0
-22 -96 0
22 47 0
-22 -47 0
118 123 0
-118 -123 0
118 36 0
-118 -36 0
118 75 0
-118 -75 0
10 104 0
-10 -104 0
10 4 0
-10 -4 0
10 86 0
-10 -86 0
111 90 0
-111 -90 0
111 51 0
-111 -51 0
111 36 0
-111 -36 0
131 44 0
-131 -44 0
131 77 0
-131 -77 0
134 94 0
-134 -94 0
134 26 0
-134 -26 0
79 65 0
-79 -65 0
79 9 0
-79 -9 0
79 129 0
-79 -129 0
117 56 0
-117 -56 0
117 90 0
-117 -90 0
117 20 0
-117 -20 0
24 68 0
-24 -68 0
24 56 0
-24 -56 0
108 112 0
-108 -112 0
108 81 0
-108 -81 0
108 35 0
-108 -35 0
2 119 0
-2 -119 0
2 136 0
-2 -136 0
2 50 0
-2 -50 0
21 78 0
-21 -78 0
21 18 0
-21 -18 0
21 33 0
-21 -33 0
58 18 0
-58 -18 0
58 53 0
-58 -53 0
27 84 0
-27 -84 0
27 112 0
-27 -112 0
27 91 0
-27 -91 0
110 36 0
-110 -36 0
110 106 0
-110 -106 0
110 46 0
-110 -46 0
1 6 0
-1 -6 0
1 16 0
-1 -16 0
1 57 0
-1 -57 0
62 40 0
-62 -40 0
62 56 0
-62 -56 0
62 84 0
-62 -84 0
60 128 0
-60 -128 0
60 20 0
-60 -20 0
60 120 0
-60 -120 0
125 25 0
-125 -25 0
125 67 0
-125 -67 0
125 90 0
-125 -90 0
98 105 0
-98 -105 0
98 70 0
-98 -70 0
98 37 0
-98 -37 0
59 53 0
-59 -53 0
59 71 0
-59 -71 0
59 128 0
-59 -128 0
7 126 0
-7 -126 0
7 13 0
-7 -13 0
7 49 0
-7 -49 0
137 4 0
-137 -4 0
137 67 0
-137 -67 0
137 33 0
-137 -33 0
63 50 0
-63 -50 0
63 104 0
-63 -104 0
63 44 0
-63 -44 0
133 29 0
-133 -29 0
133 78 0
-133 -78 0
133 6 0
-133 -6 0
15 57 0
-15 -57 0
15 64 0
-15 -64 0
135 139 0
-135 -139 0
135 28 0
-135 -28 0
101 16 0
-101 -16 0
101 25 0
-101 -25 0
19 136 0
-19 -136 0
19 94 0
-19 -94 0
19 40 0
-19 -40 0
41 120 0
-41 -120 0
41 35 0
-41 -35 0
41 139 0
-41 -139 0
34 127 0
-34 -127 0
34 65 0
-34 -65 0
116 5 0
-116 -5 0
116 57 0
-116 -57 0
116 129 0
-116 -129 0
55 67 0
-55 -67 0
55 126 0
-55 -126 0
55 74 0
-55 -74 0
3 35 0
-3 -35 0
3 26 0
-3 -26 0
3 105 0
-3 -105 0
32 38 0
-32 -38 0
32 70 0
-32 -70 0
32 53 0
-32 -53 0
31 107 0
-31 -107 0
31 84 0
-31 -84 0
31 38 0
-31 -38 0
109 64 0
-109 -64 0
109 72 0
-109 -72 0
109 93 0
-109 -93 0
73 72 0
-73 -72 0
73 121 0
-73 -121 0
73 50 0
-73 -50 0
11 12 0
-11 -12 0
11 77 0
-11 -77 0
88 91 0
-88 -91 0
88 123 0
-88 -123 0
124 47 0
-124 -47 0
124 12 0
-124 -12 0
124 64 0
-124 -64 0
17 129 0
-17 -129 0
17 123 0
-17 -123 0
97 77 0
-97 -77 0
97 107 0
-97 -107 0
97 9 0
-97 -9 0
54 46 0
-54 -46 0
54 28 0
-54 -28 0
54 12 0
-54 -12 0
87 103 0
-87 -103 0
87 92 0
-87 -92 0
102 26 0
-102 -26 0
102 75 0
-102 -75 0
76 71 0
-76 -71 0
76 138 0
-76 -138 0
76 72 0
-76 -72 0
85 74 0
-85 -74 0
85 65 0
-85 -65 0
85 103 0
-85 -103 0
61 114 0
-61 -114 0
61 119 0
-61 -119 0
61 25 0
-61 -25 0
122 92 0
-122 -92 0
122 66 0
-122 -66 0
122 114 0
-122 -114 0
100 107 0
-100 -107 0
15 61 0
-15 -61 0
98 106 0
-98 -106 0
60 46 0
-60 -46 0
87 75 0
-87 -75 0
69 24 0
-69 -24 0
80 38 0
-80 -38 0
100 49 0
-100 -49 0
57 91 0
-57 -91 0
132 3 0
-132 -3 0
15 65 0
-15 -65 0
46 103 0
-46 -103 0
135 93 0
-135 -93 0
45 31 0
-45 -31 0
83 116 0
-83 -116 0
24 1 0
-24 -1 0
13 56 0
-13 -56 0
135 18 0
-135 -18 0
42 30 0
-42 -30 0
125 13 0
-125 -13 0
105 71 0
-105 -71 0
39 131 0
-39 -131 0
132 42 0
-132 -42 0
113 11 0
-113 -11 0
31 13 0
-31 -13 0
132 22 0
-132 -22 0
75 36 0
-75 -36 0
63 138 0
-63 -138 0
34 68 0
-34 -68 0
17 76 0
-17 -76 0
58 60 0
-58 -60 0
115 3 0
-115 -3 0
10 116 0
-10 -116 0
62 44 0
-62 -44 0
29 103 0
-29 -103 0
2 73 0
-2 -73 0
2 60 0
-2 -60 0
131 78 0
-131 -78 0
52 106 0
-52 -106 0
104 46 0
-104 -46 0
115 22 0
-115 -22 0
34 122 0
-34 -122 0
111 88 0
-111 -88 0
111 130 0
-111 -130 0
125 40 0
-125 -40 0
132 31 0
-132 -31 0
52 9 0
-52 -9 0
52 134 0
-52 -134 0
45 36 0
-45 -36 0
21 68 0
-21 -68 0
121 38 0
-121 -38 0
22 25 0
-22 -25 0
86 90 0
-86 -90 0
10 96 0
-10 -96 0
88 97 0
-88 -97 0
19 102 0
-19 -102 0
85 64 0
-85 -64 0
21 119 0
-21 -119 0
95 112 0
-95 -112 0
45 71 0
-45 -71 0
87 112 0
-87 -112 0
131 2 0
-131 -2 0
21 7 0
-21 -7 0
67 91 0
-67 -91 0
58 17 0
-58 -17 0
15 67 0
-15 -67 0
9 114 0
-9 -114 0
91 103 0
-91 -103 0
102 25 0
-102 -25 0
17 6 0
-17 -6 0
52 41 0
-52 -41 0
48 15 0
-48 -15 0
44 16 0
-44 -16 0
11 126 0
-11 -126 0
3 120 0
-3 -120 0
23 97 0
-23 -97 0
15 51 0
-15 -51 0
18 25 0
-18 -25 0
122 67 0
-122 -67 0
27 37 0
-27 -37 0
1 92 0
-1 -92 0
32 96 0
-32 -96 0
7 32 0
-7 -32 0
9 43 0
-9 -43 0
33 68 0
-33 -68 0
128 50 0
-128 -50 0
31 36 0
-31 -36 0
30 38 0
-30 -38 0
117 37 0
-117 -37 0
75 139 0
-75 -139 0
22 108 0
-22 -108 0
78 103 0
-78 -103 0
98 6 0
-98 -6 0
58 4 0
-58 -4 0
8 55 0
-8 -55 0
117 4 0
-117 -4 0
2 81 0
-2 -81 0
106 13 0
-106 -13 0
45 33 0
-45 -33 0
88 67 0
-88 -67 0
73 36 0
-73 -36 0
125 32 0
-125 -32 0
84 91 0
-84 -91 0
22 4 0
-22 -4 0
39 35 0
-39 -35 0
1 61 0
-1 -61 0
23 55 0
-23 -55 0
82 104 0
-82 -104 0
7 6 0
-7 -6 0
63 135 0
-63 -135 0
41 6 0
-41 -6 0
125 98 0
-125 -98 0
40 92 0
-40 -92 0
39 19 0
-39 -19 0
40 67 0
-40 -67 0
138 12 0
-138 -12 0
63 47 0
-63 -47 0
131 65 0
-131 -65 0
73 25 0
-73 -25 0
137 34 0
-137 -34 0
117 75 0
-117 -75 0
18 114 0
-18 -114 0
3 123 0
-3 -123 0
56 126 0
-56 -126 0
6 77 0
-6 -77 0
63 72 0
-63 -72 0
45 112 0
-45 -112 0
17 127 0
-17 -127 0
80 77 0
-80 -77 0
98 18 0
-98 -18 0
27 105 0
-27 -105 0
111 71 0
-111 -71 0
82 106 0
-82 -106 0
98 44 0
-98 -44 0
140 68 0
-140 -68 0
45 19 0
-45 -19 0
53 103 0
-53 -103 0
84 29 0
-84 -29 0
69 77 0
-69 -77 0
14 29 0
-14 -29 0
100 18 0
-100 -18 0
31 121 0
-31 -121 0
131 103 0
-131 -103 0
100 8 0
-100 -8 0
130 67 0
-130 -67 0
48 50 0
-48 -50 0
1 103 0
-1 -103 0
33 72 0
-33 -72 0
58 33 0
-58 -33 0
125 56 0
-125 -56 0
91 71 0
-91 -71 0
96 72 0
-96 -72 0
135 90 0
-135 -90 0
44 64 0
-44 -64 0
125 84 0
-125 -84 0
135 94 0
-135 -94 0
26 114 0
-26 -114 0
18 40 0
-18 -40 0
78 139 0
-78 -139 0
113 76 0
-113 -76 0
133 105 0
-133 -105 0
102 86 0
-102 -86 0
108 71 0
-108 -71 0
62 75 0
-62 -75 0
103 114 0
-103 -114 0
62 11 0
-62 -11 0
131 25 0
-131 -25 0
131 108 0
-131 -108 0
11 51 0
-11 -51 0
41 75 0
-41 -75 0
89 65 0
-89 -65 0
19 107 0
-19 -107 0
49 107 0
-49 -107 0
110 81 0
-110 -81 0
56 71 0
-56 -71 0
69 72 0
-69 -72 0
113 95 0
-113 -95 0
130 123 0
-130 -123 0
61 129 0
-61 -129 0
37 47 0
-37 -47 0
43 81 0
-43 -81 0
104 129 0
-104 -129 0
135 68 0
-135 -68 0
118 131 0
-118 -131 0
82 124 0
-82 -124 0
23 137 0
-23 -137 0
79 55 0
-79 -55 0
58 38 0
-58 -38 0
27 85 0
-27 -85 0
61 126 0
-61 -126 0
29 64 0
-29 -64 0
76 119 0
-76 -119 0
1 38 0
-1 -38 0
83 51 0
-83 -51 0
24 88 0
-24 -88 0
80 128 0
-80 -128 0
137 17 0
-137 -17 0
56 105 0
-56 -105 0
43 123 0
-43 -123 0
45 46 0
-45 -46 0
17 54 0
-17 -54 0
11 5 0
-11 -5 0
31 81 0
-31 -81 0
125 19 0
-125 -19 0
23 106 0
-23 -106 0
52 67 0
-52 -67 0
137 41 0
-137 -41 0
22 36 0
-22 -36 0
85 93 0
-85 -93 0
66 50 0
-66 -50 0
55 124 0
-55 -124 0
48 129 0
-48 -129 0
123 5 0
-123 -5 0
8 84 0
-8 -84 0
30 52 0
-30 -52 0
3 128 0
-3 -128 0
85 84 0
-85 -84 0
113 52 0
-113 -52 0
34 128 0
-34 -128 0
126 26 0
-126 -26 0
69 36 0
-69 -36 0
78 26 0
-78 -26 0
86 94 0
-86 -94 0
73 6 0
-73 -6 0
19 14 0
-19 -14 0
22 32 0
-22 -32 0
108 12 0
-108 -12 0
16 91 0
-16 -91 0
133 92 0
-133 -92 0
89 18 0
-89 -18 0
95 61 0
-95 -61 0
89 119 0
-89 -119 0
29 91 0
-29 -91 0
59 90 0
-59 -90 0
82 28 0
-82 -28 0
15 88 0
-15 -88 0
87 25 0
-87 -25 0
99 16 0
-99 -16 0
80 73 0
-80 -73 0
134 112 0
-134 -112 0
112 16 0
-112 -16 0
110 26 0
-110 -26 0
42 125 0
-42 -125 0
97 44 0
-97 -44 0
116 31 0
-116 -31 0
10 112 0
-10 -112 0
89 137 0
-89 -137 0
54 18 0
-54 -18 0
132 140 0
-132 -140 0
116 92 0
-116 -92 0
51 65 0
-51 -65 0
137 25 0
-137 -25 0
99 135 0
-99 -135 0
11 78 0
-11 -78 0
96 81 0
-96 -81 0
42 29 0
-42 -29 0
60 114 0
-60 -114 0
11 64 0
-11 -64 0
39 32 0
-39 -32 0
88 127 0
-88 -127 0
75 12 0
-75 -12 0
135 96 0
-135 -96 0
91 26 0
-91 -26 0
30 21 0
-30 -21 0
48 123 0
-48 -123 0
108 14 0
-108 -14 0
87 129 0
-87 -129 0
7 26 0
-7 -26 0
130 28 0
-130 -28 0
98 54 0
-98 -54 0
21 116 0
-21 -116 0
34 17 0
-34 -17 0
134 117 0
-134 -117 0
61 96 0
-61 -96 0
48 62 0
-48 -62 0
118 12 0
-118 -12 0
108 72 0
-108 -72 0
81 40 0
-81 -40 0
104 139 0
-104 -139 0
12 77 0
-12 -77 0
39 46 0
-39 -46 0
84 12 0
-84 -12 0
88 16 0
-88 -16 0
81 104 0
-81 -104 0
132 41 0
-132 -41 0
89 17 0
-89 -17 0
2 66 0
-2 -66 0
96 70 0
-96 -70 0
89 9 0
-89 -9 0
125 70 0
-125 -70 0
81 29 0
-81 -29 0
19 92 0
-19 -92 0
37 91 0
-37 -91 0
40 46 0
-40 -46 0
48 60 0
-48 -60 0
30 73 0
-30 -73 0
42 92 0
-42 -92 0
6 12 0
-6 -12 0
69 6 0
-69 -6 0
101 18 0
-101 -18 0
110 73 0
-110 -73 0
85 91 0
-85 -91 0
62 16 0
-62 -16 0
98 9 0
-98 -9 0
7 28 0
-7 -28 0
131 53 0
-131 -53 0
115 121 0
-115 -121 0
80 37 0
-80 -37 0
115 80 0
-115 -80 0
105 35 0
-105 -35 0
34 35 0
-34 -35 0
2 26 0
-2 -26 0
115 26 0
-115 -26 0
54 123 0
-54 -123 0
140 58 0
-140 -58 0
59 105 0
-59 -105 0
43 12 0
-43 -12 0
76 105 0
-76 -105 0
39 52 0
-39 -52 0
83 79 0
-83 -79 0
40 25 0
-40 -25 0
55 28 0
-55 -28 0
58 122 0
-58 -122 0
89 54 0
-89 -54 0
58 139 0
-58 -139 0
4 50 0
-4 -50 0
134 130 0
-134 -130 0
100 9 0
-100 -9 0
93 46 0
-93 -46 0
20 43 0
-20 -43 0
137 11 0
-137 -11 0
55 66 0
-55 -66 0
13 26 0
-13 -26 0
60 59 0
-60 -59 0
30 136 0
-30 -136 0
27 53 0
-27 -53 0
75 90 0
-75 -90 0
42 18 0
-42 -18 0
134 91 0
-134 -91 0
59 139 0
-59 -139 0
21 72 0
-21 -72 0
113 82 0
-113 -82 0
132 99 0
-132 -99 0
99 126 0
-99 -126 0
124 37 0
-124 -37 0
137 109 0
-137 -109 0
105 67 0
-105 -67 0
60 116 0
-60 -116 0
15 124 0
-15 -124 0
98 87 0
-98 -87 0
83 14 0
-83 -14 0
136 71 0
-136 -71 0
135 49 0
-135 -49 0
115 77 0
-115 -77 0
6 129 0
-6 -129 0
131 4 0
-131 -4 0
23 27 0
-23 -27 0
15 14 0
-15 -14 0
40 126 0
-40 -126 0
137 36 0
-137 -36 0
135 37 0
-135 -37 0
125 43 0
-125 -43 0
111 33 0
-111 -33 0
10 41 0
-10 -41 0
19 5 0
-19 -5 0
70 26 0
-70 -26 0
95 25 0
-95 -25 0
122 81 0
-122 -81 0
133 104 0
-133 -104 0
137 135 0
-137 -135 0
50 91 0
-50 -91 0
3 47 0
-3 -47 0
94 18 0
-94 -18 0
125 135 0
-125 -135 0
100 2 0
-100 -2 0
17 9 0
-17 -9 0
108 40 0
-108 -40 0
61 37 0
-61 -37 0
24 127 0
-24 -127 0
137 43 0
-137 -43 0
83 44 0
-83 -44 0
111 139 0
-111 -139 0
97 65 0
-97 -65 0
115 99 0
-115 -99 0
95 130 0
-95 -130 0
53 46 0
-53 -46 0
135 35 0
-135 -35 0
140 74 0
-140 -74 0
39 114 0
-39 -114 0
127 92 0
-127 -92 0
130 4 0
-130 -4 0
35 38 0
-35 -38 0
132 61 0
-132 -61 0
60 3 0
-60 -3 0
81 71 0
-81 -71 0
101 94 0
-101 -94 0
50 107 0
-50 -107 0
124 114 0
-124 -114 0
138 74 0
-138 -74 0
8 138 0
-8 -138 0
89 134 0
-89 -134 0
52 58 0
-52 -58 0
65 50 0
-65 -50 0
70 104 0
-70 -104 0
1 97 0
-1 -97 0
85 37 0
-85 -37 0
66 136 0
-66 -136 0
110 59 0
-110 -59 0
27 49 0
-27 -49 0
45 29 0
-45 -29 0
7 87 0
-7 -87 0
80 70 0
-80 -70 0
89 108 0
-89 -108 0
52 78 0
-52 -78 0
47 129 0
-47 -129 0
118 122 0
-118 -122 0
51 25 0
-51 -25 0
22 18 0
-22 -18 0
88 105 0
-88 -105 0
65 107 0
-65 -107 0
105 129 0
-105 -129 0
138 119 0
-138 -119 0
44 18 0
-44 -18 0
22 129 0
-22 -129 0
82 24 0
-82 -24 0
10 97 0
-10 -97 0
51 40 0
-51 -40 0
33 103 0
-33 -103 0
21 110 0
-21 -110 0
100 19 0
-100 -19 0
110 57 0
-110 -57 0
2 71 0
-2 -71 0
22 38 0
-22 -38 0
53 16 0
-53 -16 0
61 70 0
-61 -70 0
80 124 0
-80 -124 0
130 5 0
-130 -5 0
69 110 0
-69 -110 0
89 29 0
-89 -29 0
14 38 0
-14 -38 0
45 104 0
-45 -104 0
